
(set-logic HORN)
(declare-fun Z_1534 () Int)
(declare-fun S_361 (Int) Int)
(declare-fun diseqInt (Int Int) Bool)
(declare-fun unS_519 (Int Int) Bool)
(declare-fun isZ_332 (Int) Bool)
(declare-fun isS_332 (Int) Bool)
(assert (forall ((x_47002 Int))
	(unS_519 x_47002 (S_361 x_47002))))
(assert (isZ_332 Z_1534))
(assert (forall ((x_47004 Int))
	(isS_332 (S_361 x_47004))))
(assert (forall ((x_47005 Int))
	(diseqInt Z_1534 (S_361 x_47005))))
(assert (forall ((x_47006 Int))
	(diseqInt (S_361 x_47006) Z_1534)))
(assert (forall ((x_47007 Int) (x_47008 Int))
	(=> (diseqInt x_47007 x_47008) (diseqInt (S_361 x_47007) (S_361 x_47008)))))
(declare-fun add_278 (Int Int Int) Bool)
(declare-fun minus_274 (Int Int Int) Bool)
(declare-fun le_259 (Int Int) Bool)
(declare-fun ge_259 (Int Int) Bool)
(declare-fun lt_276 (Int Int) Bool)
(declare-fun gt_262 (Int Int) Bool)
(declare-fun mult_259 (Int Int Int) Bool)
(declare-fun div_259 (Int Int Int) Bool)
(declare-fun mod_261 (Int Int Int) Bool)
(assert (forall ((y_1707 Int))
	(add_278 y_1707 Z_1534 y_1707)))
(assert (forall ((x_46995 Int) (y_1707 Int) (r_320 Int))
	(=> (add_278 r_320 x_46995 y_1707) (add_278 (S_361 r_320) (S_361 x_46995) y_1707))))
(assert (forall ((y_1707 Int))
	(minus_274 Z_1534 Z_1534 y_1707)))
(assert (forall ((x_46995 Int) (y_1707 Int) (r_320 Int))
	(=> (minus_274 r_320 x_46995 y_1707) (minus_274 (S_361 r_320) (S_361 x_46995) y_1707))))
(assert (forall ((y_1707 Int))
	(le_259 Z_1534 y_1707)))
(assert (forall ((x_46995 Int) (y_1707 Int))
	(=> (le_259 x_46995 y_1707) (le_259 (S_361 x_46995) (S_361 y_1707)))))
(assert (forall ((y_1707 Int))
	(ge_259 y_1707 Z_1534)))
(assert (forall ((x_46995 Int) (y_1707 Int))
	(=> (ge_259 x_46995 y_1707) (ge_259 (S_361 x_46995) (S_361 y_1707)))))
(assert (forall ((y_1707 Int))
	(lt_276 Z_1534 (S_361 y_1707))))
(assert (forall ((x_46995 Int) (y_1707 Int))
	(=> (lt_276 x_46995 y_1707) (lt_276 (S_361 x_46995) (S_361 y_1707)))))
(assert (forall ((y_1707 Int))
	(gt_262 (S_361 y_1707) Z_1534)))
(assert (forall ((x_46995 Int) (y_1707 Int))
	(=> (gt_262 x_46995 y_1707) (gt_262 (S_361 x_46995) (S_361 y_1707)))))
(assert (forall ((y_1707 Int))
	(mult_259 Z_1534 Z_1534 y_1707)))
(assert (forall ((x_46995 Int) (y_1707 Int) (r_320 Int) (z_1535 Int))
	(=> (and (mult_259 r_320 x_46995 y_1707) (add_278 z_1535 r_320 y_1707)) (mult_259 z_1535 (S_361 x_46995) y_1707))))
(assert (forall ((x_46995 Int) (y_1707 Int))
	(=> (lt_276 x_46995 y_1707) (div_259 Z_1534 x_46995 y_1707))))
(assert (forall ((x_46995 Int) (y_1707 Int) (r_320 Int) (z_1535 Int))
	(=> (and (ge_259 x_46995 y_1707) (minus_274 z_1535 x_46995 y_1707) (div_259 r_320 z_1535 y_1707)) (div_259 (S_361 r_320) x_46995 y_1707))))
(assert (forall ((x_46995 Int) (y_1707 Int))
	(=> (lt_276 x_46995 y_1707) (mod_261 x_46995 x_46995 y_1707))))
(assert (forall ((x_46995 Int) (y_1707 Int) (r_320 Int) (z_1535 Int))
	(=> (and (ge_259 x_46995 y_1707) (minus_274 z_1535 x_46995 y_1707) (mod_261 r_320 z_1535 y_1707)) (mod_261 r_320 x_46995 y_1707))))
(declare-datatypes ((Bool_259 0)) (((false_259) (true_259))))
(declare-fun diseqBool_118 (Bool_259 Bool_259) Bool)
(declare-fun isfalse_118 (Bool_259) Bool)
(declare-fun istrue_118 (Bool_259) Bool)
(assert (isfalse_118 false_259))
(assert (istrue_118 true_259))
(assert (diseqBool_118 false_259 true_259))
(assert (diseqBool_118 true_259 false_259))
(declare-fun and_259 (Bool_259 Bool_259 Bool_259) Bool)
(declare-fun or_264 (Bool_259 Bool_259 Bool_259) Bool)
(declare-fun hence_259 (Bool_259 Bool_259 Bool_259) Bool)
(declare-fun not_262 (Bool_259 Bool_259) Bool)
(assert (and_259 false_259 false_259 false_259))
(assert (and_259 false_259 true_259 false_259))
(assert (and_259 false_259 false_259 true_259))
(assert (and_259 true_259 true_259 true_259))
(assert (or_264 false_259 false_259 false_259))
(assert (or_264 true_259 true_259 false_259))
(assert (or_264 true_259 false_259 true_259))
(assert (or_264 true_259 true_259 true_259))
(assert (hence_259 true_259 false_259 false_259))
(assert (hence_259 false_259 true_259 false_259))
(assert (hence_259 true_259 false_259 true_259))
(assert (hence_259 true_259 true_259 true_259))
(assert (not_262 true_259 false_259))
(assert (not_262 false_259 true_259))
(declare-datatypes ((list_184 0)) (((nil_209) (cons_184 (head_368 Int) (tail_368 list_184)))))
(declare-fun diseqlist_184 (list_184 list_184) Bool)
(declare-fun head_369 (Int list_184) Bool)
(declare-fun tail_369 (list_184 list_184) Bool)
(declare-fun isnil_209 (list_184) Bool)
(declare-fun iscons_184 (list_184) Bool)
(assert (forall ((x_47012 Int) (x_47013 list_184))
	(head_369 x_47012 (cons_184 x_47012 x_47013))))
(assert (forall ((x_47012 Int) (x_47013 list_184))
	(tail_369 x_47013 (cons_184 x_47012 x_47013))))
(assert (isnil_209 nil_209))
(assert (forall ((x_47015 Int) (x_47016 list_184))
	(iscons_184 (cons_184 x_47015 x_47016))))
(assert (forall ((x_47017 Int) (x_47018 list_184))
	(diseqlist_184 nil_209 (cons_184 x_47017 x_47018))))
(assert (forall ((x_47019 Int) (x_47020 list_184))
	(diseqlist_184 (cons_184 x_47019 x_47020) nil_209)))
(assert (forall ((x_47021 Int) (x_47022 list_184) (x_47023 Int) (x_47024 list_184))
	(=> (diseqInt x_47021 x_47023) (diseqlist_184 (cons_184 x_47021 x_47022) (cons_184 x_47023 x_47024)))))
(assert (forall ((x_47021 Int) (x_47022 list_184) (x_47023 Int) (x_47024 list_184))
	(=> (diseqlist_184 x_47022 x_47024) (diseqlist_184 (cons_184 x_47021 x_47022) (cons_184 x_47023 x_47024)))))
(declare-datatypes ((pair_76 0)) (((pair_77 (projpair_152 list_184) (projpair_153 list_184)))))
(declare-fun diseqpair_38 (pair_76 pair_76) Bool)
(declare-fun projpair_154 (list_184 pair_76) Bool)
(declare-fun projpair_155 (list_184 pair_76) Bool)
(declare-fun ispair_38 (pair_76) Bool)
(assert (forall ((x_47025 list_184) (x_47026 list_184))
	(projpair_154 x_47025 (pair_77 x_47025 x_47026))))
(assert (forall ((x_47025 list_184) (x_47026 list_184))
	(projpair_155 x_47026 (pair_77 x_47025 x_47026))))
(assert (forall ((x_47028 list_184) (x_47029 list_184))
	(ispair_38 (pair_77 x_47028 x_47029))))
(assert (forall ((x_47030 list_184) (x_47031 list_184) (x_47032 list_184) (x_47033 list_184))
	(=> (diseqlist_184 x_47030 x_47032) (diseqpair_38 (pair_77 x_47030 x_47031) (pair_77 x_47032 x_47033)))))
(assert (forall ((x_47030 list_184) (x_47031 list_184) (x_47032 list_184) (x_47033 list_184))
	(=> (diseqlist_184 x_47031 x_47033) (diseqpair_38 (pair_77 x_47030 x_47031) (pair_77 x_47032 x_47033)))))
(declare-fun third_8 (Int Int) Bool)
(assert (third_8 Z_1534 (S_361 (S_361 Z_1534))))
(assert (=> (diseqInt (S_361 Z_1534) (S_361 (S_361 Z_1534))) (third_8 Z_1534 (S_361 Z_1534))))
(assert (third_8 Z_1534 (S_361 (S_361 Z_1534))))
(assert (=> (and (diseqInt Z_1534 (S_361 (S_361 Z_1534))) (diseqInt Z_1534 (S_361 Z_1534))) (third_8 Z_1534 Z_1534)))
(assert (third_8 Z_1534 (S_361 (S_361 Z_1534))))
(assert (=> (diseqInt (S_361 Z_1534) (S_361 (S_361 Z_1534))) (third_8 Z_1534 (S_361 Z_1534))))
(assert (third_8 Z_1534 (S_361 (S_361 Z_1534))))
(assert (forall ((x_46997 Int) (x_46939 Int) (x_46940 Int) (x_46916 Int))
	(=> (and (diseqInt x_46916 (S_361 (S_361 Z_1534))) (diseqInt x_46916 (S_361 Z_1534)) (diseqInt x_46916 Z_1534) (third_8 x_46940 x_46997) (minus_274 x_46997 x_46916 (S_361 (S_361 (S_361 Z_1534)))) (add_278 x_46939 (S_361 Z_1534) x_46940)) (third_8 x_46939 x_46916))))
(declare-fun take_41 (list_184 Int list_184) Bool)
(assert (forall ((x_46917 Int) (y_1696 list_184))
	(=> (le_259 x_46917 Z_1534) (take_41 nil_209 x_46917 y_1696))))
(assert (forall ((x_46998 Int) (x_46943 list_184) (z_1529 Int) (xs_504 list_184) (x_46917 Int))
	(=> (and (gt_262 x_46917 Z_1534) (take_41 x_46943 x_46998 xs_504) (minus_274 x_46998 x_46917 (S_361 Z_1534))) (take_41 (cons_184 z_1529 x_46943) x_46917 (cons_184 z_1529 xs_504)))))
(assert (forall ((x_46917 Int) (y_1696 list_184))
	(=> (le_259 x_46917 Z_1534) (take_41 nil_209 x_46917 y_1696))))
(assert (forall ((x_46917 Int))
	(=> (gt_262 x_46917 Z_1534) (take_41 nil_209 x_46917 nil_209))))
(declare-fun sort_28 (list_184 Int Int) Bool)
(assert (forall ((x_46918 Int) (y_1697 Int))
	(=> (le_259 x_46918 y_1697) (sort_28 (cons_184 x_46918 (cons_184 y_1697 nil_209)) x_46918 y_1697))))
(assert (forall ((x_46918 Int) (y_1697 Int))
	(=> (gt_262 x_46918 y_1697) (sort_28 (cons_184 y_1697 (cons_184 x_46918 nil_209)) x_46918 y_1697))))
(declare-fun ordered_17 (Bool_259 list_184) Bool)
(assert (forall ((x_46948 Bool_259) (y_1699 Int) (xs_505 list_184) (y_1698 Int))
	(=> (and (le_259 y_1698 y_1699) (ordered_17 x_46948 (cons_184 y_1699 xs_505))) (ordered_17 x_46948 (cons_184 y_1698 (cons_184 y_1699 xs_505))))))
(assert (forall ((y_1699 Int) (xs_505 list_184) (y_1698 Int))
	(=> (gt_262 y_1698 y_1699) (ordered_17 false_259 (cons_184 y_1698 (cons_184 y_1699 xs_505))))))
(assert (forall ((y_1698 Int))
	(ordered_17 true_259 (cons_184 y_1698 nil_209))))
(assert (ordered_17 true_259 nil_209))
(declare-fun length_31 (Int list_184) Bool)
(assert (forall ((x_46953 Int) (x_46954 Int) (y_1700 Int) (l_33 list_184))
	(=> (and (length_31 x_46954 l_33) (add_278 x_46953 (S_361 Z_1534) x_46954)) (length_31 x_46953 (cons_184 y_1700 l_33)))))
(assert (length_31 Z_1534 nil_209))
(declare-fun drop_43 (list_184 Int list_184) Bool)
(assert (forall ((x_46956 list_184) (x_46921 Int))
	(=> (le_259 x_46921 Z_1534) (drop_43 x_46956 x_46921 x_46956))))
(assert (forall ((x_47000 Int) (x_46957 list_184) (z_1531 Int) (xs_506 list_184) (x_46921 Int))
	(=> (and (gt_262 x_46921 Z_1534) (drop_43 x_46957 x_47000 xs_506) (minus_274 x_47000 x_46921 (S_361 Z_1534))) (drop_43 x_46957 x_46921 (cons_184 z_1531 xs_506)))))
(assert (forall ((x_46959 list_184) (x_46921 Int))
	(=> (le_259 x_46921 Z_1534) (drop_43 x_46959 x_46921 x_46959))))
(assert (forall ((x_46921 Int))
	(=> (gt_262 x_46921 Z_1534) (drop_43 nil_209 x_46921 nil_209))))
(declare-fun splitAt_19 (pair_76 Int list_184) Bool)
(assert (forall ((x_46962 list_184) (x_46963 list_184) (x_46922 Int) (y_1702 list_184))
	(=> (and (take_41 x_46962 x_46922 y_1702) (drop_43 x_46963 x_46922 y_1702)) (splitAt_19 (pair_77 x_46962 x_46963) x_46922 y_1702))))
(declare-fun x_46923 (list_184 list_184 list_184) Bool)
(assert (forall ((x_46965 list_184) (z_1532 Int) (xs_507 list_184) (y_1703 list_184))
	(=> (x_46923 x_46965 xs_507 y_1703) (x_46923 (cons_184 z_1532 x_46965) (cons_184 z_1532 xs_507) y_1703))))
(assert (forall ((x_46966 list_184))
	(x_46923 x_46966 nil_209 x_46966)))
(declare-fun reverse_10 (list_184 list_184) Bool)
(assert (forall ((x_46967 list_184) (x_46968 list_184) (y_1704 Int) (xs_508 list_184))
	(=> (and (reverse_10 x_46968 xs_508) (x_46923 x_46967 x_46968 (cons_184 y_1704 nil_209))) (reverse_10 x_46967 (cons_184 y_1704 xs_508)))))
(assert (reverse_10 nil_209 nil_209))
(declare-fun nstoogesort_24 (list_184 list_184) Bool)
(declare-fun nstoogesort_25 (list_184 list_184) Bool)
(declare-fun nstoogesort_26 (list_184 list_184) Bool)
(assert (forall ((x_46975 list_184) (x_46976 list_184) (x_46977 list_184) (x_46971 Int) (x_46972 Int) (x_46973 list_184) (ys_159 list_184) (zs_55 list_184) (x_46926 list_184))
	(=> (and (nstoogesort_25 x_46976 zs_55) (reverse_10 x_46977 ys_159) (x_46923 x_46975 x_46976 x_46977) (length_31 x_46971 x_46926) (third_8 x_46972 x_46971) (reverse_10 x_46973 x_46926) (splitAt_19 (pair_77 ys_159 zs_55) x_46972 x_46973)) (nstoogesort_24 x_46975 x_46926))))
(assert (forall ((x_46979 list_184) (x_46980 list_184) (x_46981 list_184) (x_46929 Int) (x_46930 list_184) (y_1706 Int) (y_1705 Int))
	(=> (and (nstoogesort_24 x_46980 (cons_184 y_1705 (cons_184 y_1706 (cons_184 x_46929 x_46930)))) (nstoogesort_26 x_46981 x_46980) (nstoogesort_24 x_46979 x_46981)) (nstoogesort_25 x_46979 (cons_184 y_1705 (cons_184 y_1706 (cons_184 x_46929 x_46930)))))))
(assert (forall ((x_46983 list_184) (y_1706 Int) (y_1705 Int))
	(=> (sort_28 x_46983 y_1705 y_1706) (nstoogesort_25 x_46983 (cons_184 y_1705 (cons_184 y_1706 nil_209))))))
(assert (forall ((y_1705 Int))
	(nstoogesort_25 (cons_184 y_1705 nil_209) (cons_184 y_1705 nil_209))))
(assert (nstoogesort_25 nil_209 nil_209))
(assert (forall ((x_46990 list_184) (x_46991 list_184) (x_46987 Int) (x_46988 Int) (ys_160 list_184) (zs_56 list_184) (x_46931 list_184))
	(=> (and (nstoogesort_25 x_46991 zs_56) (x_46923 x_46990 ys_160 x_46991) (length_31 x_46987 x_46931) (third_8 x_46988 x_46987) (splitAt_19 (pair_77 ys_160 zs_56) x_46988 x_46931)) (nstoogesort_26 x_46990 x_46931))))
(assert (forall ((x_46993 list_184) (xs_509 list_184))
	(=> (and true (nstoogesort_25 x_46993 xs_509) (ordered_17 false_259 x_46993)) false)))
(check-sat)
